30 1 5
441 303 538 323 266 94 18 436 6 345 891 157 678 160 449 247 666 398 847 140 830 219 937 187 838 41 103 995 784 100 
965 577 402 502 899 19 947 268 454 304 612 345 460 289 856 260 536 873 9 734 364 191 304 300 377 141 341 832 136 476 
931 452 52 684 306 950 702 252 217 156 556 181 852 367 469 59 627 356 932 987 90 295 177 745 595 906 886 287 737 373 
762 19 824 814 702 481 115 403 733 684 910 640 864 113 6 684 524 984 40 807 971 481 101 499 225 47 404 462 685 492 
834 447 862 10 612 563 490 78 318 574 113 579 213 328 44 571 12 567 554 403 373 876 883 825 375 459 224 130 921 908 
9740 1060 7060 8350 1150 6690 7500 9570 990 4190 5300 2110 9970 7430 8910 3920 3130 9020 3100 2180 6560 340 940 8900 2110 8200 3480 4340 3010 6200 
77720
